language Essence 1.3
letting n_cars be 200
letting n_classes be 18
letting n_options be 5
letting maxcars be function (1 --> 1, 2 --> 2, 3 --> 1, 4 --> 2, 5 --> 1)
letting blksize be function (1 --> 2, 2 --> 3, 3 --> 3, 4 --> 5, 5 --> 5)
letting quantity be function (1 --> 30, 2 --> 1, 3 --> 7, 4 --> 4, 5 --> 1, 6 --> 1, 7 --> 2, 8 --> 3, 9 --> 7, 10 --> 3, 11 --> 8, 12 --> 73, 13 --> 2, 14 --> 3, 15 --> 33, 16 --> 17, 17 --> 1, 18 --> 4)
letting usage be relation ((1,5),(2,2),(2,3),(2,5),(3,2),(3,4),(4,1),(4,3),(5,4),(5,5),(6,2),(6,3),(7,3),(7,5),(8,1),(8,2),(8,3),(9,1),(9,2),(10,2),(10,3),(10,4),(11,3),(11,4),(12,2),(13,1),(13,4),(14,2),(14,5),(15,1),(16,4),(17,1),(17,3),(17,4),(18,3))

